n = 310;
rows = 640;
supports = [|
  {1},2..12,
 |{1},300..310,
 |{2},{1},
 |{2},3..13,
 |{2},301..310,
 |{3},1..2,
 |{3},4..14,
 |{3},302..310,
 |{4},1..3,
 |{4},5..15,
 |{4},303..310,
 |{5},1..4,
 |{5},6..16,
 |{5},304..310,
 |{6},1..5,
 |{6},7..17,
 |{6},305..310,
 |{7},1..6,
 |{7},8..18,
 |{7},306..310,
 |{8},1..7,
 |{8},9..19,
 |{8},307..310,
 |{9},1..8,
 |{9},10..20,
 |{9},308..310,
 |{10},1..9,
 |{10},11..21,
 |{10},309..310,
 |{11},1..10,
 |{11},12..22,
 |{11},{310},
 |{12},1..11,
 |{12},13..23,
 |{13},2..12,
 |{13},14..24,
 |{14},3..13,
 |{14},15..25,
 |{15},4..14,
 |{15},16..26,
 |{16},5..15,
 |{16},17..27,
 |{17},6..16,
 |{17},18..28,
 |{18},7..17,
 |{18},19..29,
 |{19},8..18,
 |{19},20..30,
 |{20},9..19,
 |{20},21..31,
 |{21},10..20,
 |{21},22..32,
 |{22},11..21,
 |{22},23..33,
 |{23},12..22,
 |{23},24..34,
 |{24},13..23,
 |{24},25..35,
 |{25},14..24,
 |{25},26..36,
 |{26},15..25,
 |{26},27..37,
 |{27},16..26,
 |{27},28..38,
 |{28},17..27,
 |{28},29..39,
 |{29},18..28,
 |{29},30..40,
 |{30},19..29,
 |{30},31..41,
 |{31},20..30,
 |{31},32..42,
 |{32},21..31,
 |{32},33..43,
 |{33},22..32,
 |{33},34..44,
 |{34},23..33,
 |{34},35..45,
 |{35},24..34,
 |{35},36..46,
 |{36},25..35,
 |{36},37..47,
 |{37},26..36,
 |{37},38..48,
 |{38},27..37,
 |{38},39..49,
 |{39},28..38,
 |{39},40..50,
 |{40},29..39,
 |{40},41..51,
 |{41},30..40,
 |{41},42..52,
 |{42},31..41,
 |{42},43..53,
 |{43},32..42,
 |{43},44..54,
 |{44},33..43,
 |{44},45..55,
 |{45},34..44,
 |{45},46..56,
 |{46},35..45,
 |{46},47..57,
 |{47},36..46,
 |{47},48..58,
 |{48},37..47,
 |{48},49..59,
 |{49},38..48,
 |{49},50..60,
 |{50},39..49,
 |{50},51..61,
 |{51},40..50,
 |{51},52..62,
 |{52},41..51,
 |{52},53..63,
 |{53},42..52,
 |{53},54..64,
 |{54},43..53,
 |{54},55..65,
 |{55},44..54,
 |{55},56..66,
 |{56},45..55,
 |{56},57..67,
 |{57},46..56,
 |{57},58..68,
 |{58},47..57,
 |{58},59..69,
 |{59},48..58,
 |{59},60..70,
 |{60},49..59,
 |{60},61..71,
 |{61},50..60,
 |{61},62..72,
 |{62},51..61,
 |{62},63..73,
 |{63},52..62,
 |{63},64..74,
 |{64},53..63,
 |{64},65..75,
 |{65},54..64,
 |{65},66..76,
 |{66},55..65,
 |{66},67..77,
 |{67},56..66,
 |{67},68..78,
 |{68},57..67,
 |{68},69..79,
 |{69},58..68,
 |{69},70..80,
 |{70},59..69,
 |{70},71..81,
 |{71},60..70,
 |{71},72..82,
 |{72},61..71,
 |{72},73..83,
 |{73},62..72,
 |{73},74..84,
 |{74},63..73,
 |{74},75..85,
 |{75},64..74,
 |{75},76..86,
 |{76},65..75,
 |{76},77..87,
 |{77},66..76,
 |{77},78..88,
 |{78},67..77,
 |{78},79..89,
 |{79},68..78,
 |{79},80..90,
 |{80},69..79,
 |{80},81..91,
 |{81},70..80,
 |{81},82..92,
 |{82},71..81,
 |{82},83..93,
 |{83},72..82,
 |{83},84..94,
 |{84},73..83,
 |{84},85..95,
 |{85},74..84,
 |{85},86..96,
 |{86},75..85,
 |{86},87..97,
 |{87},76..86,
 |{87},88..98,
 |{88},77..87,
 |{88},89..99,
 |{89},78..88,
 |{89},90..100,
 |{90},79..89,
 |{90},91..101,
 |{91},80..90,
 |{91},92..102,
 |{92},81..91,
 |{92},93..103,
 |{93},82..92,
 |{93},94..104,
 |{94},83..93,
 |{94},95..105,
 |{95},84..94,
 |{95},96..106,
 |{96},85..95,
 |{96},97..107,
 |{97},86..96,
 |{97},98..108,
 |{98},87..97,
 |{98},99..109,
 |{99},88..98,
 |{99},100..110,
 |{100},89..99,
 |{100},101..111,
 |{101},90..100,
 |{101},102..112,
 |{102},91..101,
 |{102},103..113,
 |{103},92..102,
 |{103},104..114,
 |{104},93..103,
 |{104},105..115,
 |{105},94..104,
 |{105},106..116,
 |{106},95..105,
 |{106},107..117,
 |{107},96..106,
 |{107},108..118,
 |{108},97..107,
 |{108},109..119,
 |{109},98..108,
 |{109},110..120,
 |{110},99..109,
 |{110},111..121,
 |{111},100..110,
 |{111},112..122,
 |{112},101..111,
 |{112},113..123,
 |{113},102..112,
 |{113},114..124,
 |{114},103..113,
 |{114},115..125,
 |{115},104..114,
 |{115},116..126,
 |{116},105..115,
 |{116},117..127,
 |{117},106..116,
 |{117},118..128,
 |{118},107..117,
 |{118},119..129,
 |{119},108..118,
 |{119},120..130,
 |{120},109..119,
 |{120},121..131,
 |{121},110..120,
 |{121},122..132,
 |{122},111..121,
 |{122},123..133,
 |{123},112..122,
 |{123},124..134,
 |{124},113..123,
 |{124},125..135,
 |{125},114..124,
 |{125},126..136,
 |{126},115..125,
 |{126},127..137,
 |{127},116..126,
 |{127},128..138,
 |{128},117..127,
 |{128},129..139,
 |{129},118..128,
 |{129},130..140,
 |{130},119..129,
 |{130},131..141,
 |{131},120..130,
 |{131},132..142,
 |{132},121..131,
 |{132},133..143,
 |{133},122..132,
 |{133},134..144,
 |{134},123..133,
 |{134},135..145,
 |{135},124..134,
 |{135},136..146,
 |{136},125..135,
 |{136},137..147,
 |{137},126..136,
 |{137},138..148,
 |{138},127..137,
 |{138},139..149,
 |{139},128..138,
 |{139},140..150,
 |{140},129..139,
 |{140},141..151,
 |{141},130..140,
 |{141},142..152,
 |{142},131..141,
 |{142},143..153,
 |{143},132..142,
 |{143},144..154,
 |{144},133..143,
 |{144},145..155,
 |{145},134..144,
 |{145},146..156,
 |{146},135..145,
 |{146},147..157,
 |{147},136..146,
 |{147},148..158,
 |{148},137..147,
 |{148},149..159,
 |{149},138..148,
 |{149},150..160,
 |{150},139..149,
 |{150},151..161,
 |{151},140..150,
 |{151},152..162,
 |{152},141..151,
 |{152},153..163,
 |{153},142..152,
 |{153},154..164,
 |{154},143..153,
 |{154},155..165,
 |{155},144..154,
 |{155},156..166,
 |{156},145..155,
 |{156},157..167,
 |{157},146..156,
 |{157},158..168,
 |{158},147..157,
 |{158},159..169,
 |{159},148..158,
 |{159},160..170,
 |{160},149..159,
 |{160},161..171,
 |{161},150..160,
 |{161},162..172,
 |{162},151..161,
 |{162},163..173,
 |{163},152..162,
 |{163},164..174,
 |{164},153..163,
 |{164},165..175,
 |{165},154..164,
 |{165},166..176,
 |{166},155..165,
 |{166},167..177,
 |{167},156..166,
 |{167},168..178,
 |{168},157..167,
 |{168},169..179,
 |{169},158..168,
 |{169},170..180,
 |{170},159..169,
 |{170},171..181,
 |{171},160..170,
 |{171},172..182,
 |{172},161..171,
 |{172},173..183,
 |{173},162..172,
 |{173},174..184,
 |{174},163..173,
 |{174},175..185,
 |{175},164..174,
 |{175},176..186,
 |{176},165..175,
 |{176},177..187,
 |{177},166..176,
 |{177},178..188,
 |{178},167..177,
 |{178},179..189,
 |{179},168..178,
 |{179},180..190,
 |{180},169..179,
 |{180},181..191,
 |{181},170..180,
 |{181},182..192,
 |{182},171..181,
 |{182},183..193,
 |{183},172..182,
 |{183},184..194,
 |{184},173..183,
 |{184},185..195,
 |{185},174..184,
 |{185},186..196,
 |{186},175..185,
 |{186},187..197,
 |{187},176..186,
 |{187},188..198,
 |{188},177..187,
 |{188},189..199,
 |{189},178..188,
 |{189},190..200,
 |{190},179..189,
 |{190},191..201,
 |{191},180..190,
 |{191},192..202,
 |{192},181..191,
 |{192},193..203,
 |{193},182..192,
 |{193},194..204,
 |{194},183..193,
 |{194},195..205,
 |{195},184..194,
 |{195},196..206,
 |{196},185..195,
 |{196},197..207,
 |{197},186..196,
 |{197},198..208,
 |{198},187..197,
 |{198},199..209,
 |{199},188..198,
 |{199},200..210,
 |{200},189..199,
 |{200},201..211,
 |{201},190..200,
 |{201},202..212,
 |{202},191..201,
 |{202},203..213,
 |{203},192..202,
 |{203},204..214,
 |{204},193..203,
 |{204},205..215,
 |{205},194..204,
 |{205},206..216,
 |{206},195..205,
 |{206},207..217,
 |{207},196..206,
 |{207},208..218,
 |{208},197..207,
 |{208},209..219,
 |{209},198..208,
 |{209},210..220,
 |{210},199..209,
 |{210},211..221,
 |{211},200..210,
 |{211},212..222,
 |{212},201..211,
 |{212},213..223,
 |{213},202..212,
 |{213},214..224,
 |{214},203..213,
 |{214},215..225,
 |{215},204..214,
 |{215},216..226,
 |{216},205..215,
 |{216},217..227,
 |{217},206..216,
 |{217},218..228,
 |{218},207..217,
 |{218},219..229,
 |{219},208..218,
 |{219},220..230,
 |{220},209..219,
 |{220},221..231,
 |{221},210..220,
 |{221},222..232,
 |{222},211..221,
 |{222},223..233,
 |{223},212..222,
 |{223},224..234,
 |{224},213..223,
 |{224},225..235,
 |{225},214..224,
 |{225},226..236,
 |{226},215..225,
 |{226},227..237,
 |{227},216..226,
 |{227},228..238,
 |{228},217..227,
 |{228},229..239,
 |{229},218..228,
 |{229},230..240,
 |{230},219..229,
 |{230},231..241,
 |{231},220..230,
 |{231},232..242,
 |{232},221..231,
 |{232},233..243,
 |{233},222..232,
 |{233},234..244,
 |{234},223..233,
 |{234},235..245,
 |{235},224..234,
 |{235},236..246,
 |{236},225..235,
 |{236},237..247,
 |{237},226..236,
 |{237},238..248,
 |{238},227..237,
 |{238},239..249,
 |{239},228..238,
 |{239},240..250,
 |{240},229..239,
 |{240},241..251,
 |{241},230..240,
 |{241},242..252,
 |{242},231..241,
 |{242},243..253,
 |{243},232..242,
 |{243},244..254,
 |{244},233..243,
 |{244},245..255,
 |{245},234..244,
 |{245},246..256,
 |{246},235..245,
 |{246},247..257,
 |{247},236..246,
 |{247},248..258,
 |{248},237..247,
 |{248},249..259,
 |{249},238..248,
 |{249},250..260,
 |{250},239..249,
 |{250},251..261,
 |{251},240..250,
 |{251},252..262,
 |{252},241..251,
 |{252},253..263,
 |{253},242..252,
 |{253},254..264,
 |{254},243..253,
 |{254},255..265,
 |{255},244..254,
 |{255},256..266,
 |{256},245..255,
 |{256},257..267,
 |{257},246..256,
 |{257},258..268,
 |{258},247..257,
 |{258},259..269,
 |{259},248..258,
 |{259},260..270,
 |{260},249..259,
 |{260},261..271,
 |{261},250..260,
 |{261},262..272,
 |{262},251..261,
 |{262},263..273,
 |{263},252..262,
 |{263},264..274,
 |{264},253..263,
 |{264},265..275,
 |{265},254..264,
 |{265},266..276,
 |{266},255..265,
 |{266},267..277,
 |{267},256..266,
 |{267},268..278,
 |{268},257..267,
 |{268},269..279,
 |{269},258..268,
 |{269},270..280,
 |{270},259..269,
 |{270},271..281,
 |{271},260..270,
 |{271},272..282,
 |{272},261..271,
 |{272},273..283,
 |{273},262..272,
 |{273},274..284,
 |{274},263..273,
 |{274},275..285,
 |{275},264..274,
 |{275},276..286,
 |{276},265..275,
 |{276},277..287,
 |{277},266..276,
 |{277},278..288,
 |{278},267..277,
 |{278},279..289,
 |{279},268..278,
 |{279},280..290,
 |{280},269..279,
 |{280},281..291,
 |{281},270..280,
 |{281},282..292,
 |{282},271..281,
 |{282},283..293,
 |{283},272..282,
 |{283},284..294,
 |{284},273..283,
 |{284},285..295,
 |{285},274..284,
 |{285},286..296,
 |{286},275..285,
 |{286},287..297,
 |{287},276..286,
 |{287},288..298,
 |{288},277..287,
 |{288},289..299,
 |{289},278..288,
 |{289},290..300,
 |{290},279..289,
 |{290},291..301,
 |{291},280..290,
 |{291},292..302,
 |{292},281..291,
 |{292},293..303,
 |{293},282..292,
 |{293},294..304,
 |{294},283..293,
 |{294},295..305,
 |{295},284..294,
 |{295},296..306,
 |{296},285..295,
 |{296},297..307,
 |{297},286..296,
 |{297},298..308,
 |{298},287..297,
 |{298},299..309,
 |{299},288..298,
 |{299},300..310,
 |{300},289..299,
 |{300},301..310,
 |{300},{1},
 |{301},290..300,
 |{301},302..310,
 |{301},1..2,
 |{302},291..301,
 |{302},303..310,
 |{302},1..3,
 |{303},292..302,
 |{303},304..310,
 |{303},1..4,
 |{304},293..303,
 |{304},305..310,
 |{304},1..5,
 |{305},294..304,
 |{305},306..310,
 |{305},1..6,
 |{306},295..305,
 |{306},307..310,
 |{306},1..7,
 |{307},296..306,
 |{307},308..310,
 |{307},1..8,
 |{308},297..307,
 |{308},309..310,
 |{308},1..9,
 |{309},298..308,
 |{309},{310},
 |{309},1..10,
 |{310},299..309,
 |{310},1..11 |];

t = 1069;

indexes = [|
    0,44,
  | 0,94,
  | 0,119,
  | 0,129,
  | 0,167,
  | 0,234,
  | 0,297,
  | 1,88,
  | 1,105,
  | 1,110,
  | 2,5,
  | 2,51,
  | 2,68,
  | 2,178,
  | 3,13,
  | 3,28,
  | 3,58,
  | 3,65,
  | 3,118,
  | 3,131,
  | 3,140,
  | 3,224,
  | 4,67,
  | 4,85,
  | 4,106,
  | 4,173,
  | 4,188,
  | 4,277,
  | 4,295,
  | 4,298,
  | 5,68,
  | 5,94,
  | 5,167,
  | 6,76,
  | 6,77,
  | 6,137,
  | 6,209,
  | 6,287,
  | 7,48,
  | 7,59,
  | 7,70,
  | 7,100,
  | 7,120,
  | 7,206,
  | 7,253,
  | 7,254,
  | 8,9,
  | 8,116,
  | 8,132,
  | 8,154,
  | 8,173,
  | 8,182,
  | 8,241,
  | 9,106,
  | 9,111,
  | 9,116,
  | 9,125,
  | 9,173,
  | 9,231,
  | 9,289,
  | 10,13,
  | 10,17,
  | 10,65,
  | 10,74,
  | 10,122,
  | 10,212,
  | 10,293,
  | 10,300,
  | 11,77,
  | 11,98,
  | 11,115,
  | 11,201,
  | 11,221,
  | 11,235,
  | 11,237,
  | 11,247,
  | 12,77,
  | 12,95,
  | 12,115,
  | 12,137,
  | 12,145,
  | 12,198,
  | 12,209,
  | 12,247,
  | 13,28,
  | 13,65,
  | 13,74,
  | 13,122,
  | 13,257,
  | 13,293,
  | 14,18,
  | 14,21,
  | 14,99,
  | 14,100,
  | 14,200,
  | 14,207,
  | 14,243,
  | 14,265,
  | 15,24,
  | 15,38,
  | 15,130,
  | 15,135,
  | 15,161,
  | 15,194,
  | 15,204,
  | 15,274,
  | 16,27,
  | 16,32,
  | 16,55,
  | 16,170,
  | 16,181,
  | 16,230,
  | 16,303,
  | 16,307,
  | 17,74,
  | 17,80,
  | 17,193,
  | 17,212,
  | 17,217,
  | 17,226,
  | 17,268,
  | 18,21,
  | 18,99,
  | 18,113,
  | 18,142,
  | 18,148,
  | 18,258,
  | 18,305,
  | 19,36,
  | 19,117,
  | 19,160,
  | 19,197,
  | 19,215,
  | 19,259,
  | 19,270,
  | 19,306,
  | 20,117,
  | 20,165,
  | 20,169,
  | 20,174,
  | 20,185,
  | 20,238,
  | 20,273,
  | 20,306,
  | 21,23,
  | 21,99,
  | 21,113,
  | 21,200,
  | 21,243,
  | 21,258,
  | 22,23,
  | 22,96,
  | 22,143,
  | 22,243,
  | 22,284,
  | 23,143,
  | 23,243,
  | 23,258,
  | 24,125,
  | 24,130,
  | 24,146,
  | 24,161,
  | 24,187,
  | 24,266,
  | 24,289,
  | 25,61,
  | 25,72,
  | 25,85,
  | 25,187,
  | 25,227,
  | 25,236,
  | 25,266,
  | 25,298,
  | 26,46,
  | 26,49,
  | 26,186,
  | 26,251,
  | 26,271,
  | 27,32,
  | 27,40,
  | 27,55,
  | 27,101,
  | 27,170,
  | 27,191,
  | 27,303,
  | 28,65,
  | 28,114,
  | 28,118,
  | 28,131,
  | 28,257,
  | 28,293,
  | 29,51,
  | 29,67,
  | 29,73,
  | 29,87,
  | 29,178,
  | 29,190,
  | 29,277,
  | 29,295,
  | 30,41,
  | 30,133,
  | 30,147,
  | 30,164,
  | 30,165,
  | 31,75,
  | 31,104,
  | 31,124,
  | 31,128,
  | 31,136,
  | 32,53,
  | 32,55,
  | 32,86,
  | 32,139,
  | 32,181,
  | 32,230,
  | 33,144,
  | 33,151,
  | 33,221,
  | 33,237,
  | 33,272,
  | 33,290,
  | 33,301,
  | 33,308,
  | 34,47,
  | 34,52,
  | 34,129,
  | 34,234,
  | 34,240,
  | 35,56,
  | 35,71,
  | 35,152,
  | 35,184,
  | 35,208,
  | 36,42,
  | 36,82,
  | 36,117,
  | 36,174,
  | 36,177,
  | 36,197,
  | 36,214,
  | 37,43,
  | 37,44,
  | 37,163,
  | 37,173,
  | 37,188,
  | 37,241,
  | 37,277,
  | 38,130,
  | 38,146,
  | 38,194,
  | 38,255,
  | 39,146,
  | 39,203,
  | 39,249,
  | 39,255,
  | 39,267,
  | 40,101,
  | 40,275,
  | 40,299,
  | 40,303,
  | 41,133,
  | 41,164,
  | 42,82,
  | 42,117,
  | 42,133,
  | 42,164,
  | 42,165,
  | 42,174,
  | 42,177,
  | 43,44,
  | 43,68,
  | 43,94,
  | 43,178,
  | 43,188,
  | 43,277,
  | 44,94,
  | 44,163,
  | 44,297,
  | 45,160,
  | 45,195,
  | 45,215,
  | 45,232,
  | 45,259,
  | 46,186,
  | 46,256,
  | 46,271,
  | 46,286,
  | 47,49,
  | 47,52,
  | 47,83,
  | 47,93,
  | 47,234,
  | 47,251,
  | 47,297,
  | 48,70,
  | 48,100,
  | 48,120,
  | 48,126,
  | 48,150,
  | 48,200,
  | 48,253,
  | 49,52,
  | 49,251,
  | 49,271,
  | 50,109,
  | 50,110,
  | 50,153,
  | 50,245,
  | 51,68,
  | 51,73,
  | 51,178,
  | 52,234,
  | 52,251,
  | 53,55,
  | 53,62,
  | 53,86,
  | 53,162,
  | 53,172,
  | 53,191,
  | 53,199,
  | 54,195,
  | 54,197,
  | 54,214,
  | 54,215,
  | 54,220,
  | 55,86,
  | 55,101,
  | 55,172,
  | 55,191,
  | 56,58,
  | 56,71,
  | 56,140,
  | 56,152,
  | 56,184,
  | 56,208,
  | 56,224,
  | 57,180,
  | 57,211,
  | 57,260,
  | 57,262,
  | 57,292,
  | 58,65,
  | 58,90,
  | 58,122,
  | 58,140,
  | 58,208,
  | 58,296,
  | 59,103,
  | 59,120,
  | 59,127,
  | 59,206,
  | 59,227,
  | 59,236,
  | 59,269,
  | 60,111,
  | 60,176,
  | 60,219,
  | 60,267,
  | 60,275,
  | 60,299,
  | 61,85,
  | 61,103,
  | 61,227,
  | 61,236,
  | 61,280,
  | 61,295,
  | 61,298,
  | 62,86,
  | 62,139,
  | 62,144,
  | 62,186,
  | 62,199,
  | 62,256,
  | 62,308,
  | 63,79,
  | 63,123,
  | 63,205,
  | 63,216,
  | 63,233,
  | 64,123,
  | 64,149,
  | 64,205,
  | 64,206,
  | 64,228,
  | 64,229,
  | 64,254,
  | 64,269,
  | 65,90,
  | 65,122,
  | 65,140,
  | 66,78,
  | 66,89,
  | 66,121,
  | 66,202,
  | 66,263,
  | 66,276,
  | 67,85,
  | 67,87,
  | 67,178,
  | 67,188,
  | 67,277,
  | 67,295,
  | 68,94,
  | 68,178,
  | 68,277,
  | 69,107,
  | 69,139,
  | 69,181,
  | 69,201,
  | 69,210,
  | 69,211,
  | 69,230,
  | 69,262,
  | 70,72,
  | 70,120,
  | 70,126,
  | 70,150,
  | 70,227,
  | 70,274,
  | 71,104,
  | 71,136,
  | 71,152,
  | 72,120,
  | 72,126,
  | 72,161,
  | 72,227,
  | 72,266,
  | 72,274,
  | 73,87,
  | 73,178,
  | 73,190,
  | 74,81,
  | 74,212,
  | 74,226,
  | 74,268,
  | 74,293,
  | 75,124,
  | 75,128,
  | 75,158,
  | 75,159,
  | 75,180,
  | 75,239,
  | 75,292,
  | 76,97,
  | 76,114,
  | 76,137,
  | 76,209,
  | 77,168,
  | 77,209,
  | 77,235,
  | 77,247,
  | 77,287,
  | 78,91,
  | 78,121,
  | 78,202,
  | 78,223,
  | 78,279,
  | 79,123,
  | 79,134,
  | 79,175,
  | 79,202,
  | 79,229,
  | 79,233,
  | 79,279,
  | 80,112,
  | 80,189,
  | 80,193,
  | 80,212,
  | 80,217,
  | 80,226,
  | 80,250,
  | 81,257,
  | 81,268,
  | 81,293,
  | 81,302,
  | 82,133,
  | 82,164,
  | 82,177,
  | 83,84,
  | 83,93,
  | 83,138,
  | 83,234,
  | 83,251,
  | 83,297,
  | 84,132,
  | 84,138,
  | 84,154,
  | 84,163,
  | 84,241,
  | 84,297,
  | 85,106,
  | 85,280,
  | 85,295,
  | 85,298,
  | 86,139,
  | 86,199,
  | 86,230,
  | 86,308,
  | 87,190,
  | 87,213,
  | 87,280,
  | 87,295,
  | 87,304,
  | 88,105,
  | 88,110,
  | 88,121,
  | 88,153,
  | 88,263,
  | 89,171,
  | 89,175,
  | 89,202,
  | 89,261,
  | 89,276,
  | 89,309,
  | 90,122,
  | 90,141,
  | 90,208,
  | 90,218,
  | 90,296,
  | 90,300,
  | 91,105,
  | 91,121,
  | 91,223,
  | 92,141,
  | 92,196,
  | 92,218,
  | 92,248,
  | 92,252,
  | 92,283,
  | 92,294,
  | 92,300,
  | 93,138,
  | 93,162,
  | 93,172,
  | 93,242,
  | 93,251,
  | 93,271,
  | 94,167,
  | 95,115,
  | 95,145,
  | 95,158,
  | 95,179,
  | 95,198,
  | 95,239,
  | 95,247,
  | 96,126,
  | 96,135,
  | 96,143,
  | 96,150,
  | 96,204,
  | 96,274,
  | 96,284,
  | 97,114,
  | 97,137,
  | 97,257,
  | 97,302,
  | 98,107,
  | 98,115,
  | 98,159,
  | 98,201,
  | 98,221,
  | 98,239,
  | 98,247,
  | 99,142,
  | 99,207,
  | 99,264,
  | 99,265,
  | 99,305,
  | 100,150,
  | 100,155,
  | 100,200,
  | 100,207,
  | 100,253,
  | 101,191,
  | 101,275,
  | 101,291,
  | 101,299,
  | 101,303,
  | 102,108,
  | 102,149,
  | 102,166,
  | 102,205,
  | 102,216,
  | 103,127,
  | 103,166,
  | 103,225,
  | 103,236,
  | 103,280,
  | 103,304,
  | 104,124,
  | 104,136,
  | 104,152,
  | 104,158,
  | 104,179,
  | 104,224,
  | 105,121,
  | 106,173,
  | 106,187,
  | 106,188,
  | 106,289,
  | 106,298,
  | 107,159,
  | 107,180,
  | 107,201,
  | 107,210,
  | 107,211,
  | 107,262,
  | 108,149,
  | 108,166,
  | 108,225,
  | 108,281,
  | 109,142,
  | 109,148,
  | 109,245,
  | 110,153,
  | 111,116,
  | 111,219,
  | 111,231,
  | 111,249,
  | 111,267,
  | 112,156,
  | 112,217,
  | 112,238,
  | 112,250,
  | 113,142,
  | 113,148,
  | 113,258,
  | 114,118,
  | 114,137,
  | 114,145,
  | 114,257,
  | 114,302,
  | 115,158,
  | 115,159,
  | 115,239,
  | 115,247,
  | 116,173,
  | 116,182,
  | 116,219,
  | 116,231,
  | 117,174,
  | 117,197,
  | 117,270,
  | 117,306,
  | 118,131,
  | 118,137,
  | 118,145,
  | 118,198,
  | 118,257,
  | 119,129,
  | 119,167,
  | 119,240,
  | 119,278,
  | 120,206,
  | 120,227,
  | 120,236,
  | 121,263,
  | 122,212,
  | 122,218,
  | 122,300,
  | 123,175,
  | 123,205,
  | 123,216,
  | 123,229,
  | 123,233,
  | 124,128,
  | 124,136,
  | 124,158,
  | 124,179,
  | 124,239,
  | 125,130,
  | 125,146,
  | 125,187,
  | 125,231,
  | 125,249,
  | 125,289,
  | 126,143,
  | 126,150,
  | 126,204,
  | 126,274,
  | 127,149,
  | 127,166,
  | 127,206,
  | 127,225,
  | 127,236,
  | 127,269,
  | 128,180,
  | 128,292,
  | 129,167,
  | 129,234,
  | 129,240,
  | 129,278,
  | 129,297,
  | 130,146,
  | 130,161,
  | 130,194,
  | 130,255,
  | 131,140,
  | 131,145,
  | 131,179,
  | 131,198,
  | 131,224,
  | 132,138,
  | 132,154,
  | 132,163,
  | 132,173,
  | 132,182,
  | 132,241,
  | 133,164,
  | 134,223,
  | 134,233,
  | 134,279,
  | 135,194,
  | 135,204,
  | 135,284,
  | 136,152,
  | 137,145,
  | 137,209,
  | 138,154,
  | 138,242,
  | 139,210,
  | 139,230,
  | 139,301,
  | 139,308,
  | 140,152,
  | 140,208,
  | 140,224,
  | 141,192,
  | 141,218,
  | 141,246,
  | 141,282,
  | 141,283,
  | 141,296,
  | 142,148,
  | 142,245,
  | 142,305,
  | 143,150,
  | 143,200,
  | 143,243,
  | 143,284,
  | 144,256,
  | 144,272,
  | 144,286,
  | 144,290,
  | 144,301,
  | 144,308,
  | 145,198,
  | 145,209,
  | 146,231,
  | 146,249,
  | 146,255,
  | 147,164,
  | 147,165,
  | 147,169,
  | 147,285,
  | 149,166,
  | 149,205,
  | 149,216,
  | 149,269,
  | 150,200,
  | 150,243,
  | 151,168,
  | 151,235,
  | 151,237,
  | 151,272,
  | 152,179,
  | 152,224,
  | 153,222,
  | 153,245,
  | 153,263,
  | 154,182,
  | 154,242,
  | 154,291,
  | 155,171,
  | 155,207,
  | 155,228,
  | 155,253,
  | 155,254,
  | 155,265,
  | 155,309,
  | 156,169,
  | 156,238,
  | 156,250,
  | 156,285,
  | 157,160,
  | 157,185,
  | 157,196,
  | 157,244,
  | 157,248,
  | 157,252,
  | 157,270,
  | 157,306,
  | 158,179,
  | 158,198,
  | 158,239,
  | 159,180,
  | 159,201,
  | 159,211,
  | 159,239,
  | 160,232,
  | 160,244,
  | 160,259,
  | 160,270,
  | 160,288,
  | 161,187,
  | 161,204,
  | 161,266,
  | 161,274,
  | 162,172,
  | 162,186,
  | 162,199,
  | 162,242,
  | 162,251,
  | 162,271,
  | 163,241,
  | 163,297,
  | 164,165,
  | 164,174,
  | 165,169,
  | 165,174,
  | 165,285,
  | 166,225,
  | 166,269,
  | 166,281,
  | 168,235,
  | 168,237,
  | 168,287,
  | 169,174,
  | 169,238,
  | 169,273,
  | 169,285,
  | 170,181,
  | 170,303,
  | 170,307,
  | 171,207,
  | 171,228,
  | 171,261,
  | 171,264,
  | 171,265,
  | 171,309,
  | 172,191,
  | 172,199,
  | 172,242,
  | 172,291,
  | 173,188,
  | 173,241,
  | 173,289,
  | 174,306,
  | 175,202,
  | 175,228,
  | 175,229,
  | 175,279,
  | 175,309,
  | 176,203,
  | 176,267,
  | 176,299,
  | 177,197,
  | 177,214,
  | 178,277,
  | 179,198,
  | 179,224,
  | 180,211,
  | 180,239,
  | 180,292,
  | 181,230,
  | 181,260,
  | 181,262,
  | 181,307,
  | 182,219,
  | 182,291,
  | 183,244,
  | 183,246,
  | 183,252,
  | 183,283,
  | 183,288,
  | 184,192,
  | 184,208,
  | 184,296,
  | 185,189,
  | 185,196,
  | 185,248,
  | 185,270,
  | 185,273,
  | 185,306,
  | 186,199,
  | 186,256,
  | 186,271,
  | 186,286,
  | 187,266,
  | 187,289,
  | 187,298,
  | 188,241,
  | 188,277,
  | 189,193,
  | 189,238,
  | 189,248,
  | 189,250,
  | 189,273,
  | 189,294,
  | 190,213,
  | 190,304,
  | 191,242,
  | 191,275,
  | 191,291,
  | 192,208,
  | 192,282,
  | 192,296,
  | 193,212,
  | 193,248,
  | 193,250,
  | 193,294,
  | 193,300,
  | 194,204,
  | 195,215,
  | 195,220,
  | 195,259,
  | 196,244,
  | 196,248,
  | 196,252,
  | 196,283,
  | 196,294,
  | 197,214,
  | 197,215,
  | 197,259,
  | 198,224,
  | 199,256,
  | 199,271,
  | 200,207,
  | 200,243,
  | 201,210,
  | 201,221,
  | 201,301,
  | 202,279,
  | 202,309,
  | 203,249,
  | 203,267,
  | 204,274,
  | 204,284,
  | 205,216,
  | 205,229,
  | 205,269,
  | 206,253,
  | 206,254,
  | 206,269,
  | 207,253,
  | 207,265,
  | 208,296,
  | 209,247,
  | 209,287,
  | 210,221,
  | 210,230,
  | 210,301,
  | 210,308,
  | 211,260,
  | 211,262,
  | 211,292,
  | 212,294,
  | 212,300,
  | 213,225,
  | 213,281,
  | 213,304,
  | 214,215,
  | 215,220,
  | 215,259,
  | 217,226,
  | 217,250,
  | 218,283,
  | 218,294,
  | 218,296,
  | 218,300,
  | 219,275,
  | 219,291,
  | 221,235,
  | 221,237,
  | 221,301,
  | 222,245,
  | 222,263,
  | 222,264,
  | 222,276,
  | 222,305,
  | 223,279,
  | 225,280,
  | 225,281,
  | 225,304,
  | 226,268,
  | 227,236,
  | 227,266,
  | 228,229,
  | 228,253,
  | 228,254,
  | 228,309,
  | 229,254,
  | 229,309,
  | 230,262,
  | 231,249,
  | 231,267,
  | 231,289,
  | 232,244,
  | 232,259,
  | 232,288,
  | 233,279,
  | 234,240,
  | 234,297,
  | 235,237,
  | 235,247,
  | 235,287,
  | 236,280,
  | 237,272,
  | 237,301,
  | 238,250,
  | 238,273,
  | 238,285,
  | 240,278,
  | 242,291,
  | 243,258,
  | 244,252,
  | 244,270,
  | 244,288,
  | 245,305,
  | 246,252,
  | 246,282,
  | 246,283,
  | 248,273,
  | 248,294,
  | 249,255,
  | 249,267,
  | 250,273,
  | 251,271,
  | 252,283,
  | 252,288,
  | 253,254,
  | 254,269,
  | 256,286,
  | 256,290,
  | 256,308,
  | 257,293,
  | 257,302,
  | 259,270,
  | 260,262,
  | 260,307,
  | 261,264,
  | 261,265,
  | 261,276,
  | 261,309,
  | 262,307,
  | 263,276,
  | 264,265,
  | 264,276,
  | 264,305,
  | 265,305,
  | 266,274,
  | 266,298,
  | 268,293,
  | 270,306,
  | 272,290,
  | 273,306,
  | 275,291,
  | 275,299,
  | 280,295,
  | 280,304,
  | 281,304,
  | 282,283,
  | 282,296,
  | 286,290,
  | 289,298,
  | 293,302,
  | 294,300,
  | 295,304,
  | 301,308 |];

